\ Model Benders
\ LP format - for model browsing. Use MPS format to capture full model detail.
Minimize
  4 x[0,0] + 7 x[0,1] + 3 x[0,2] + 12 x[0,3] + 15 x[0,4] + 13 x[1,0]
   + 11 x[1,1] + 17 x[1,2] + 9 x[1,3] + 19 x[1,4] + 8 x[2,0] + 12 x[2,1]
   + 10 x[2,2] + 7 x[2,3] + 5 x[2,4] + 400 y[0] + 250 y[1] + 300 y[2]
Subject To
 c1[0]: x[0,0] + x[0,1] + x[0,2] + x[0,3] + x[0,4] - 329 y[0] <= 0
 c1[1]: x[1,0] + x[1,1] + x[1,2] + x[1,3] + x[1,4] - 329 y[1] <= 0
 c1[2]: x[2,0] + x[2,1] + x[2,2] + x[2,3] + x[2,4] - 329 y[2] <= 0
 c2[0]: x[0,0] + x[1,0] + x[2,0] = 75
 c2[1]: x[0,1] + x[1,1] + x[2,1] = 90
 c2[2]: x[0,2] + x[1,2] + x[2,2] = 81
 c2[3]: x[0,3] + x[1,3] + x[2,3] = 26
 c2[4]: x[0,4] + x[1,4] + x[2,4] = 57
Bounds
Binaries
 y[0] y[1] y[2]
End
